15 65
12 162
7 63
43 4
1 121
8 24
20 56
7 147
24 61
49 48
88 47
36 93
4 146
5 103
88 65
84 26
1 57
4 95
20 100
54 88
27 53
33 7
100 27
36 154
36 104
11 40
16 93
18 165
65 13
17 54
34 67
46 57
10 132
26 109
40 66
2 155
24 161
18 141
8 141
72 53
38 88
37 7
70 1
28 2
32 60
24 68
73 8
39 49
30 159
88 34
